Copyright (C) 2013-2015, Filipe Brandao
Build (method = -2)
  #dp: 3620
  Step-3' Graph: 99 vertices and 1989 arcs (0.00s)
  Step-4' Graph: 94 vertices and 1979 arcs (0.00s)
  #V4/#V3 = 0.95
  #A4/#A3 = 0.99
Ready! (0.00s)
Optimize a model with 160 rows, 1980 columns and 5757 nonzeros
Found heuristic solution: objective 104
Presolve removed 21 rows and 23 columns
Presolve time: 0.02s
Presolved: 139 rows, 1957 columns, 5632 nonzeros
Variable types: 0 continuous, 1957 integer (891 binary)
Optimize a model with 139 rows, 1957 columns and 5632 nonzeros
Presolved: 139 rows, 1957 columns, 5632 nonzeros

Root barrier log...

Ordering time: 0.00s

Barrier statistics:
 AA' NZ     : 3.255e+03
 Factor NZ  : 5.885e+03
 Factor Ops : 3.304e+05 (less than 1 second per iteration)
 Threads    : 1

                  Objective                Residual
Iter       Primal          Dual         Primal    Dual     Compl     Time
   0   1.94363670e+03 -1.03247426e+04  8.83e+03 1.27e-01  1.84e+01     0s
   1   5.66146537e+02 -3.32203159e+03  1.20e+03 5.55e-16  2.96e+00     0s
   2   1.89905482e+02 -1.03940475e+03  1.39e+02 1.20e-02  5.03e-01     0s
   3   1.08602342e+02 -1.45694386e+02  1.22e+01 8.97e-04  7.62e-02     0s
   4   7.17857668e+01 -2.49650943e+01  1.89e+00 3.26e-16  2.57e-02     0s
   5   5.93456300e+01  7.83466349e+00  8.98e-01 3.33e-16  1.35e-02     0s
   6   5.59863699e+01  2.58280270e+01  6.77e-01 2.19e-16  7.87e-03     0s
   7   5.34427441e+01  3.38163450e+01  3.72e-01 2.72e-16  5.07e-03     0s
   8   5.18357481e+01  3.98728795e+01  2.42e-01 1.76e-16  3.07e-03     0s
   9   5.02849653e+01  4.48005525e+01  1.00e-01 2.58e-16  1.40e-03     0s
  10   4.90376508e+01  4.64903363e+01  1.59e-02 2.22e-16  6.48e-04     0s
  11   4.86541982e+01  4.74634811e+01  3.16e-03 2.22e-16  3.02e-04     0s
  12   4.85211717e+01  4.79313210e+01  1.14e-03 2.22e-16  1.50e-04     0s
  13   4.84851086e+01  4.81507200e+01  8.12e-04 2.22e-16  8.49e-05     0s
  14   4.84418981e+01  4.82329892e+01  4.09e-04 1.61e-16  5.30e-05     0s
  15   4.84158255e+01  4.82775569e+01  1.95e-04 2.22e-16  3.51e-05     0s
  16   4.83946883e+01  4.83348060e+01  5.38e-05 2.22e-16  1.52e-05     0s
  17   4.83863484e+01  4.83684664e+01  1.82e-05 2.22e-16  4.54e-06     0s
  18   4.83817652e+01  4.83801672e+01  4.10e-07 2.57e-16  4.06e-07     0s
  19   4.83815032e+01  4.83815015e+01  1.26e-13 3.14e-16  4.24e-10     0s
  20   4.83815029e+01  4.83815029e+01  4.13e-14 2.66e-16  4.24e-13     0s

Barrier solved model in 20 iterations and 0.02 seconds
Optimal objective 4.83815029e+01


Root relaxation: objective 4.838150e+01, 172 iterations, 0.02 seconds

    Nodes    |    Current Node    |     Objective Bounds      |     Work
 Expl Unexpl |  Obj  Depth IntInf | Incumbent    BestBd   Gap | It/Node Time

     0     0   48.38150    0   32  104.00000   48.38150  53.5%     -    0s
H    0     0                      50.0000000   48.38150  3.24%     -    0s
H    0     0                      49.0000000   48.38150  1.26%     -    0s

Explored 0 nodes (501 simplex iterations) in 0.05 seconds
Thread count was 1 (of 4 available processors)

Optimal solution found (tolerance 0.00e+00)
Best objective 4.900000000000e+01, best bound 4.900000000000e+01, gap 0.0%
Preprocessing time: 0.00 seconds
Gurobi run time: 0.05 seconds
Total run time: 0.05 seconds
Objective: 49
Solution:
3 x [i=1, i=43]
1 x [i=1, i=60, i=65]
1 x [i=2, i=41]
1 x [i=2, i=42]
1 x [i=3, i=50]
1 x [i=3, i=59, i=66]
1 x [i=4, i=40]
2 x [i=5, i=39]
1 x [i=5, i=57, i=66]
1 x [i=6, i=38]
2 x [i=7, i=36]
1 x [i=8, i=34]
2 x [i=8, i=53, i=65]
1 x [i=9, i=33]
1 x [i=10, i=32]
1 x [i=11, i=31]
1 x [i=12, i=30]
1 x [i=12, i=55, i=64]
1 x [i=13, i=29]
1 x [i=14, i=28]
1 x [i=15, i=27]
1 x [i=16, i=26]
1 x [i=16, i=47, i=63]
1 x [i=17, i=25]
1 x [i=18, i=24]
1 x [i=19, i=21]
1 x [i=19, i=22]
1 x [i=20, i=20]
1 x [i=22, i=40, i=64]
1 x [i=22, i=42, i=62]
1 x [i=22, i=49, i=57]
1 x [i=22, i=51, i=55]
1 x [i=22, i=52, i=54]
1 x [i=23, i=47, i=58]
1 x [i=23, i=48, i=57]
1 x [i=27, i=46, i=55]
1 x [i=28, i=37, i=62]
2 x [i=31, i=42, i=56]
1 x [i=32, i=46, i=51]
1 x [i=33, i=44, i=52]
1 x [i=35, i=38, i=56]
1 x [i=35, i=46, i=47]
1 x [i=45, i=61]
